nK = 805;
nT = 4;
nI = 7;
L = 29;
TT = 216;
np = 1;
nc = 3;
b = [35, 47, 64, 23, 36, 65, 28];
d = [73, 143, 140, 140, 102, 113, 111];
m = [1.1, 1.9, 1.1, 1.2, 1.6, 1.4, 1.6];
pt = [0.25, 0.3, 0.32, 0.32];
st = [14.75, 17.4, 16.32, 14.08];
arc = {<1, 0, 1, 1, 0, 0, 0, [1, 1, 1, 1]>, <2, 1, 2, 1, 0, 0, 0, [1, 1, 1, 1]>, <3, 2, 3, 1, 0, 0, 0, [1, 1, 1, 1]>, <4, 3, 4, 1, 0, 0, 0, [1, 1, 1, 1]>, <5, 4, 5, 1, 0, 0, 0, [1, 1, 1, 1]>, <6, 5, 6, 1, 0, 0, 0, [1, 1, 1, 1]>, <7, 6, 7, 1, 0, 0, 0, [1, 1, 1, 1]>, <8, 7, 8, 1, 0, 0, 0, [1, 1, 1, 1]>, <9, 8, 9, 1, 0, 0, 0, [1, 1, 1, 1]>, <10, 9, 10, 1, 0, 0, 0, [1, 1, 1, 1]>, <11, 10, 11, 1, 0, 0, 0, [1, 1, 1, 1]>, <12, 11, 12, 1, 0, 0, 0, [1, 1, 1, 1]>, <13, 12, 13, 1, 0, 0, 0, [1, 1, 1, 1]>, <14, 13, 14, 1, 0, 0, 0, [1, 1, 1, 1]>, <15, 14, 15, 1, 0, 0, 0, [1, 1, 1, 1]>, <16, 15, 16, 1, 0, 0, 0, [1, 1, 1, 1]>, <17, 16, 17, 1, 0, 0, 0, [1, 1, 1, 1]>, <18, 17, 18, 1, 0, 0, 0, [1, 1, 1, 1]>, <19, 18, 19, 1, 0, 0, 0, [1, 1, 1, 1]>, <20, 19, 20, 1, 0, 0, 0, [1, 1, 1, 1]>, <21, 20, 21, 1, 0, 0, 0, [1, 1, 1, 1]>, <22, 21, 22, 1, 0, 0, 0, [1, 1, 1, 1]>, <23, 22, 23, 1, 0, 0, 0, [1, 1, 1, 1]>, <24, 23, 24, 1, 0, 0, 0, [1, 1, 1, 1]>, <25, 24, 25, 1, 0, 0, 0, [1, 1, 1, 1]>, <26, 25, 26, 1, 0, 0, 0, [1, 1, 1, 1]>, <27, 26, 27, 1, 0, 0, 0, [1, 1, 1, 1]>, <28, 27, 28, 1, 0, 0, 0, [1, 1, 1, 1]>, <29, 28, 29, 1, 0, 0, 0, [1, 1, 1, 1]>, <30, 0, 14, 14, 1, 0, 1, [1, 1, 0, 0]>, <31, 1, 15, 14, 1, 0, 1, [1, 1, 0, 0]>, <32, 2, 16, 14, 1, 0, 1, [1, 1, 0, 0]>, <33, 3, 17, 14, 1, 0, 1, [1, 1, 0, 0]>, <34, 4, 18, 14, 1, 0, 1, [1, 1, 0, 0]>, <35, 5, 19, 14, 1, 0, 1, [1, 1, 0, 0]>, <36, 6, 20, 14, 1, 0, 1, [1, 1, 0, 0]>, <37, 7, 21, 14, 1, 0, 1, [1, 1, 0, 0]>, <38, 8, 22, 14, 1, 0, 1, [1, 1, 0, 0]>, <39, 9, 23, 14, 1, 0, 1, [1, 1, 0, 0]>, <40, 10, 24, 14, 1, 0, 1, [1, 1, 0, 0]>, <41, 11, 25, 14, 1, 0, 1, [1, 1, 0, 0]>, <42, 12, 26, 14, 1, 0, 1, [1, 1, 0, 0]>, <43, 13, 27, 14, 1, 0, 1, [1, 1, 0, 0]>, <44, 14, 28, 14, 1, 0, 1, [1, 1, 0, 0]>, <45, 15, 29, 14, 1, 0, 1, [1, 1, 0, 0]>, <46, 0, 14, 14, 2, 1, 0, [0, 1, 1, 0]>, <47, 1, 15, 14, 2, 1, 0, [0, 1, 1, 0]>, <48, 2, 16, 14, 2, 1, 0, [0, 1, 1, 0]>, <49, 3, 17, 14, 2, 1, 0, [0, 1, 1, 0]>, <50, 4, 18, 14, 2, 1, 0, [0, 1, 1, 0]>, <51, 5, 19, 14, 2, 1, 0, [0, 1, 1, 0]>, <52, 6, 20, 14, 2, 1, 0, [0, 1, 1, 0]>, <53, 7, 21, 14, 2, 1, 0, [0, 1, 1, 0]>, <54, 8, 22, 14, 2, 1, 0, [0, 1, 1, 0]>, <55, 9, 23, 14, 2, 1, 0, [0, 1, 1, 0]>, <56, 10, 24, 14, 2, 1, 0, [0, 1, 1, 0]>, <57, 11, 25, 14, 2, 1, 0, [0, 1, 1, 0]>, <58, 12, 26, 14, 2, 1, 0, [0, 1, 1, 0]>, <59, 13, 27, 14, 2, 1, 0, [0, 1, 1, 0]>, <60, 14, 28, 14, 2, 1, 0, [0, 1, 1, 0]>, <61, 15, 29, 14, 2, 1, 0, [0, 1, 1, 0]>, <62, 0, 15, 15, 3, 0, 0, [0, 1, 1, 0]>, <63, 1, 16, 15, 3, 0, 0, [0, 1, 1, 0]>, <64, 2, 17, 15, 3, 0, 0, [0, 1, 1, 0]>, <65, 3, 18, 15, 3, 0, 0, [0, 1, 1, 0]>, <66, 4, 19, 15, 3, 0, 0, [0, 1, 1, 0]>, <67, 5, 20, 15, 3, 0, 0, [0, 1, 1, 0]>, <68, 6, 21, 15, 3, 0, 0, [0, 1, 1, 0]>, <69, 7, 22, 15, 3, 0, 0, [0, 1, 1, 0]>, <70, 8, 23, 15, 3, 0, 0, [0, 1, 1, 0]>, <71, 9, 24, 15, 3, 0, 0, [0, 1, 1, 0]>, <72, 10, 25, 15, 3, 0, 0, [0, 1, 1, 0]>, <73, 11, 26, 15, 3, 0, 0, [0, 1, 1, 0]>, <74, 12, 27, 15, 3, 0, 0, [0, 1, 1, 0]>, <75, 13, 28, 15, 3, 0, 0, [0, 1, 1, 0]>, <76, 14, 29, 15, 3, 0, 0, [0, 1, 1, 0]>, <77, 1, 12, 11, 4, 0, 0, [0, 0, 1, 1]>, <78, 2, 13, 11, 4, 0, 0, [0, 0, 1, 1]>, <79, 3, 14, 11, 4, 0, 0, [0, 0, 1, 1]>, <80, 4, 15, 11, 4, 0, 0, [0, 0, 1, 1]>, <81, 5, 16, 11, 4, 0, 0, [0, 0, 1, 1]>, <82, 9, 20, 11, 4, 0, 0, [0, 0, 1, 1]>, <83, 10, 21, 11, 4, 0, 0, [0, 0, 1, 1]>, <84, 11, 22, 11, 4, 0, 0, [0, 0, 1, 1]>, <85, 12, 23, 11, 4, 0, 0, [0, 0, 1, 1]>, <86, 13, 24, 11, 4, 0, 0, [0, 0, 1, 1]>, <87, 14, 25, 11, 4, 0, 0, [0, 0, 1, 1]>, <88, 15, 26, 11, 4, 0, 0, [0, 0, 1, 1]>, <89, 16, 27, 11, 4, 0, 0, [0, 0, 1, 1]>, <90, 17, 28, 11, 4, 0, 0, [0, 0, 1, 1]>, <91, 18, 29, 11, 4, 0, 0, [0, 0, 1, 1]>, <92, 0, 14, 14, 5, 0, 0, [1, 1, 0, 0]>, <93, 1, 15, 14, 5, 0, 0, [1, 1, 0, 0]>, <94, 2, 16, 14, 5, 0, 0, [1, 1, 0, 0]>, <95, 3, 17, 14, 5, 0, 0, [1, 1, 0, 0]>, <96, 4, 18, 14, 5, 0, 0, [1, 1, 0, 0]>, <97, 5, 19, 14, 5, 0, 0, [1, 1, 0, 0]>, <98, 6, 20, 14, 5, 0, 0, [1, 1, 0, 0]>, <99, 7, 21, 14, 5, 0, 0, [1, 1, 0, 0]>, <100, 8, 22, 14, 5, 0, 0, [1, 1, 0, 0]>, <101, 9, 23, 14, 5, 0, 0, [1, 1, 0, 0]>, <102, 10, 24, 14, 5, 0, 0, [1, 1, 0, 0]>, <103, 11, 25, 14, 5, 0, 0, [1, 1, 0, 0]>, <104, 12, 26, 14, 5, 0, 0, [1, 1, 0, 0]>, <105, 13, 27, 14, 5, 0, 0, [1, 1, 0, 0]>, <106, 14, 28, 14, 5, 0, 0, [1, 1, 0, 0]>, <107, 15, 29, 14, 5, 0, 0, [1, 1, 0, 0]>, <108, 0, 12, 12, 6, 1, 0, [0, 0, 1, 1]>, <109, 1, 13, 12, 6, 1, 0, [0, 0, 1, 1]>, <110, 2, 14, 12, 6, 1, 0, [0, 0, 1, 1]>, <111, 3, 15, 12, 6, 1, 0, [0, 0, 1, 1]>, <112, 4, 16, 12, 6, 1, 0, [0, 0, 1, 1]>, <113, 5, 17, 12, 6, 1, 0, [0, 0, 1, 1]>, <114, 8, 20, 12, 6, 1, 0, [0, 0, 1, 1]>, <115, 9, 21, 12, 6, 1, 0, [0, 0, 1, 1]>, <116, 10, 22, 12, 6, 1, 0, [0, 0, 1, 1]>, <117, 11, 23, 12, 6, 1, 0, [0, 0, 1, 1]>, <118, 12, 24, 12, 6, 1, 0, [0, 0, 1, 1]>, <119, 13, 25, 12, 6, 1, 0, [0, 0, 1, 1]>, <120, 14, 26, 12, 6, 1, 0, [0, 0, 1, 1]>, <121, 15, 27, 12, 6, 1, 0, [0, 0, 1, 1]>, <122, 16, 28, 12, 6, 1, 0, [0, 0, 1, 1]>, <123, 17, 29, 12, 6, 1, 0, [0, 0, 1, 1]>, <124, 1, 12, 11, 7, 1, 0, [0, 0, 1, 1]>, <125, 2, 13, 11, 7, 1, 0, [0, 0, 1, 1]>, <126, 3, 14, 11, 7, 1, 0, [0, 0, 1, 1]>, <127, 4, 15, 11, 7, 1, 0, [0, 0, 1, 1]>, <128, 5, 16, 11, 7, 1, 0, [0, 0, 1, 1]>, <129, 9, 20, 11, 7, 1, 0, [0, 0, 1, 1]>, <130, 10, 21, 11, 7, 1, 0, [0, 0, 1, 1]>, <131, 11, 22, 11, 7, 1, 0, [0, 0, 1, 1]>, <132, 12, 23, 11, 7, 1, 0, [0, 0, 1, 1]>, <133, 13, 24, 11, 7, 1, 0, [0, 0, 1, 1]>, <134, 14, 25, 11, 7, 1, 0, [0, 0, 1, 1]>, <135, 15, 26, 11, 7, 1, 0, [0, 0, 1, 1]>, <136, 16, 27, 11, 7, 1, 0, [0, 0, 1, 1]>, <137, 17, 28, 11, 7, 1, 0, [0, 0, 1, 1]>, <138, 18, 29, 11, 7, 1, 0, [0, 0, 1, 1]>};
